sat
(:added-eqs                   173
 :arith-eq-adapter            33
 :arith-bound-propagations-lp 2
 :arith-conflicts             6
 :arith-diseq                 11
 :arith-fixed-eqs             33
 :arith-grobner-calls         2
 :arith-lower                 56
 :arith-make-feasible         32
 :arith-max-columns           300
 :arith-max-rows              49
 :arith-nla-add-bounds        1
 :arith-nla-propagate-eq      76
 :arith-nra-calls             1
 :arith-offset-eqs            4
 :arith-upper                 157
 :binary-propagations         284
 :card2bv-rewrites            6
 :conflicts                   6
 :decisions                   270
 :del-clause                  31
 :elim-unconstrained          4
 :final-checks                2
 :max-memory                  20.33
 :memory                      18.59
 :mk-bool-var                 403
 :mk-clause                   66
 :mk-clause-binary            361
 :nlsat-conflicts             56
 :nlsat-propagations          721
 :nlsat-restarts              1
 :nlsat-stages                583
 :num-allocs                  1161227
 :num-checks                  1
 :propagations                312
 :rlimit-count                73783
 :time                        0.02
 :total-time                  0.04)
